(set-logic HORN)
(set-info :source |
    Benchmark: C_VC
    Output by Princess (http://www.philipp.ruemmer.org/princess.shtml)
|)
(set-info :status unknown)
(declare-fun inv_main13 (Int Int Int Int) Bool)
(declare-fun inv_main17 (Int Int Int Int) Bool)
(declare-fun inv_main22 (Int Int Int Int) Bool)
(assert (forall ((var0 Int) (var1 Int) (var2 Int) (var3 Int) (var4 Int) (var5 Int)) (or (not (and (inv_main22 var5 var2 var1 var3) (and (and (<= 0 (+ (+ (+ var5 var2) (* (- 1) (+ var3 1))) (- 1))) (= (+ var1 (- 1)) var0)) (= (+ var3 1) var4)))) (inv_main22 var5 var2 var0 var4))))
(assert (forall ((var0 Int) (var1 Int) (var2 Int) (var3 Int) (var4 Int)) (or (not (and (inv_main17 var4 var2 var0 var3) (and (and (<= 0 (+ (+ var4 var2) (- 1))) (not (<= 0 (+ (+ var2 (* (- 1) var3)) (- 1))))) (= 0 var1)))) (inv_main22 var4 var2 var0 var1))))
(assert (forall ((var0 Int) (var1 Int) (var2 Int) (var3 Int) (var4 Int) (var5 Int)) (or (not (and (inv_main17 var5 var3 var1 var4) (and (and (<= 0 (+ (+ var3 (* (- 1) var4)) (- 1))) (= (+ var1 1) var0)) (= (+ var4 1) var2)))) (inv_main17 var5 var3 var0 var2))))
(assert (forall ((var0 Int) (var1 Int) (var2 Int) (var3 Int)) (or (not (and (and (and (and (and (<= 0 (+ var2 1000000)) (<= 0 (+ (+ 1000000 (* (- 1) var2)) (- 1)))) (<= 0 (+ var3 1000000))) (<= 0 (+ (+ 1000000 (* (- 1) var3)) (- 1)))) (= 0 var0)) (= 0 var1))) (inv_main13 var3 var2 var0 var1))))
(assert (forall ((var0 Int) (var1 Int) (var2 Int) (var3 Int) (var4 Int)) (or (not (and (inv_main13 var4 var3 var0 var2) (and (not (<= 0 (+ (+ var4 (* (- 1) var0)) (- 1)))) (= 0 var1)))) (inv_main17 var4 var3 var2 var1))))
(assert (forall ((var0 Int) (var1 Int) (var2 Int) (var3 Int) (var4 Int) (var5 Int)) (or (not (and (inv_main13 var5 var2 var0 var1) (and (and (<= 0 (+ (+ var5 (* (- 1) var0)) (- 1))) (= (+ var0 1) var3)) (= (+ var1 1) var4)))) (inv_main13 var5 var2 var3 var4))))
(assert (forall ((var0 Int) (var1 Int) (var2 Int) (var3 Int)) (not (and (inv_main22 var3 var1 var0 var2) (not (<= 0 (+ var0 (- 1))))))))
(check-sat)
